12
0 44 84 98 10 97 68 95 82 14 76 53 
7 0 5 49 16 38 74 55 57 98 95 51 
31 14 0 33 32 98 81 79 100 85 40 49 
74 89 61 0 72 38 92 83 68 88 67 86 
98 76 18 100 0 51 17 35 76 85 77 6 
62 76 89 61 20 0 96 1 48 11 97 70 
70 92 14 34 36 89 0 94 4 5 15 32 
32 27 98 95 93 45 27 0 34 9 21 88 
84 57 88 36 69 74 48 38 0 14 16 65 
56 96 9 100 4 45 27 47 78 0 84 89 
85 95 72 35 12 90 9 33 12 71 0 63 
2 80 20 52 45 6 47 42 7 75 16 0 
